language ESSENCE' 1.0
$---------------------------------------------------------------------------
$ size of the matrix
$---------------------------------------------------------------------------
letting r be 4
letting c be 4
$letting a be 1
letting b be 2

$---------------------------------------------------------------------------
$ rightMatrix:
$---------------------------------------------------------------------------

$letting rightMatrix be [
$[1, 1],
$[3, 0],
$[0, 0],
$[0, 0]
$]

letting rightMatrix be [
[1, 0],
[0, 0],
[2, 0],
[0, 0]
]



$---------------------------------------------------------------------------
$ topMatrix:
$---------------------------------------------------------------------------

$letting topMatrix be [
$[1, 0]
$]

letting topMatrix be [
[1, 0, 1, 1],
[0, 0, 0, 0]
]

$letting topMatrix be [
$[2, 1, 2, 0],
$[0, 0, 0, 0]
$]

$letting topMatrix be [
$[2, 0, 0, 0],
$[1, 0, 0, 0]
$]

$letting topMatrix be [
$[1, 0, 0, 0],
$[2, 0, 0, 0]
$]

$$ should not work:
$letting topMatrix be [
$[2, 0, 0, 0],
$[2, 0, 0, 0]
$]

$letting topMatrix be [
$[3, 0, 0, 0],
$[0, 0, 0, 0]
$]

$letting topMatrix be [
$[4, 0, 0, 0],
$[0, 0, 0, 0]
$]

$letting topMatrix be [
$[4, 2, 0, 0],
$[0, 0, 0, 0]
$]


$---------------------------------------------------------------------------
$ Experimenting f matrix
$---------------------------------------------------------------------------
$letting f be [
$[1, 0, 0]
$]
